Instance Name : r112
Date : 2022-07-18
Solution
Route 1 : 6 94 95 87 42 43 15 57 58
Route 2 : 52 7 82 8 46 45 17 84 5 89
Route 3 : 2 41 22 75 56 23 67 39 25 55 54
Route 4 : 27 69 30 66 65 71 35 9 50
Route 5 : 61 16 86 38 14 44 91 100 37 59 96
Route 6 : 12 24 29 34 78 79 3 77 68 80
Route 7 : 53 40 21 73 74 72 4 26
Route 8 : 28 76 33 81 51 20 32 90 63 10 70 1
Route 9 : 31 88 62 19 11 64 49 36 47 48
Route 10 : 18 83 60 99 93 85 98 92 97 13
